NAME          DCAP_3_4_2_500_SS208
ROWS
 N  OBJ
 L  CON1
 L  CON2
 L  CON3
 L  CON4
 L  CON5
 L  CON6
 L  CON7
 L  CON8
 L  CON9
 L  CON10
 L  CON11
 L  CON12
 E  CON13
 E  CON14
 E  CON15
 E  CON16
 E  CON17
 E  CON18
 E  CON19
 E  CON20
COLUMNS
    x[1,1]    OBJ       6.180167      CON1      1.000000    
    x[1,1]    CON7      -1.000000     CON8      -1.000000   
    x[1,2]    OBJ       5.039546      CON2      1.000000    
    x[1,2]    CON8      -1.000000   
    x[2,1]    OBJ       6.732585      CON3      1.000000    
    x[2,1]    CON9      -1.000000     CON10     -1.000000   
    x[2,2]    OBJ       7.443064      CON4      1.000000    
    x[2,2]    CON10     -1.000000   
    x[3,1]    OBJ       6.563535      CON5      1.000000    
    x[3,1]    CON11     -1.000000     CON12     -1.000000   
    x[3,2]    OBJ       6.054841      CON6      1.000000    
    x[3,2]    CON12     -1.000000   
    MARKER    'MARKER'                'INTORG'
    u[1,1]    OBJ       48.076654     CON1      -1.000000   
    u[1,2]    OBJ       49.466655     CON2      -1.000000   
    u[2,1]    OBJ       49.996186     CON3      -1.000000   
    u[2,2]    OBJ       32.230043     CON4      -1.000000   
    u[3,1]    OBJ       20.066487     CON5      -1.000000   
    u[3,2]    OBJ       27.484319     CON6      -1.000000   
    y[1,1,1]  OBJ       6.121161      CON7      1.402149    
    y[1,1,1]  CON13     1.000000    
    y[1,1,2]  OBJ       5.393949      CON8      1.240959    
    y[1,1,2]  CON14     1.000000    
    y[1,2,1]  OBJ       5.903579      CON7      1.309443    
    y[1,2,1]  CON15     1.000000    
    y[1,2,2]  OBJ       7.455414      CON8      0.794890    
    y[1,2,2]  CON16     1.000000    
    y[1,3,1]  OBJ       9.223508      CON7      1.132304    
    y[1,3,1]  CON17     1.000000    
    y[1,3,2]  OBJ       8.086286      CON8      1.178966    
    y[1,3,2]  CON18     1.000000    
    y[1,4,1]  OBJ       6.074515      CON7      0.572027    
    y[1,4,1]  CON19     1.000000    
    y[1,4,2]  OBJ       5.985664      CON8      0.520995    
    y[1,4,2]  CON20     1.000000    
    y[2,1,1]  OBJ       9.251154      CON9      1.402149    
    y[2,1,1]  CON13     1.000000    
    y[2,1,2]  OBJ       8.528239      CON10     1.240959    
    y[2,1,2]  CON14     1.000000    
    y[2,2,1]  OBJ       5.044070      CON9      1.309443    
    y[2,2,1]  CON15     1.000000    
    y[2,2,2]  OBJ       8.844145      CON10     0.794890    
    y[2,2,2]  CON16     1.000000    
    y[2,3,1]  OBJ       7.700121      CON9      1.132304    
    y[2,3,1]  CON17     1.000000    
    y[2,3,2]  OBJ       8.461789      CON10     1.178966    
    y[2,3,2]  CON18     1.000000    
    y[2,4,1]  OBJ       5.555948      CON9      0.572027    
    y[2,4,1]  CON19     1.000000    
    y[2,4,2]  OBJ       8.868197      CON10     0.520995    
    y[2,4,2]  CON20     1.000000    
    y[3,1,1]  OBJ       5.497994      CON11     1.402149    
    y[3,1,1]  CON13     1.000000    
    y[3,1,2]  OBJ       7.467528      CON12     1.240959    
    y[3,1,2]  CON14     1.000000    
    y[3,2,1]  OBJ       5.760054      CON11     1.309443    
    y[3,2,1]  CON15     1.000000    
    y[3,2,2]  OBJ       9.296028      CON12     0.794890    
    y[3,2,2]  CON16     1.000000    
    y[3,3,1]  OBJ       8.452666      CON11     1.132304    
    y[3,3,1]  CON17     1.000000    
    y[3,3,2]  OBJ       7.683073      CON12     1.178966    
    y[3,3,2]  CON18     1.000000    
    y[3,4,1]  OBJ       6.319616      CON11     0.572027    
    y[3,4,1]  CON19     1.000000    
    y[3,4,2]  OBJ       5.138693      CON12     0.520995    
    y[3,4,2]  CON20     1.000000    
    z[1,1]    OBJ       637.014395    CON13     1.000000    
    z[1,2]    OBJ       926.953745    CON14     1.000000    
    z[2,1]    OBJ       585.268446    CON15     1.000000    
    z[2,2]    OBJ       567.175583    CON16     1.000000    
    z[3,1]    OBJ       857.470205    CON17     1.000000    
    z[3,2]    OBJ       932.376474    CON18     1.000000    
    z[4,1]    OBJ       996.193209    CON19     1.000000    
    z[4,2]    OBJ       919.433632    CON20     1.000000    
    MARKER    'MARKER'                 'INTEND'
RHS
    RHS       CON1      -0.000000     CON2      -0.000000   
    RHS       CON3      -0.000000     CON4      -0.000000   
    RHS       CON5      -0.000000     CON6      -0.000000   
    RHS       CON7      -0.000000     CON8      -0.000000   
    RHS       CON9      -0.000000     CON10     -0.000000   
    RHS       CON11     -0.000000     CON12     -0.000000   
    RHS       CON13     1.000000      CON14     1.000000    
    RHS       CON15     1.000000      CON16     1.000000    
    RHS       CON17     1.000000      CON18     1.000000    
    RHS       CON19     1.000000      CON20     1.000000    
BOUNDS
 BV BOUND     u[1,1]  
 BV BOUND     u[1,2]  
 BV BOUND     u[2,1]  
 BV BOUND     u[2,2]  
 BV BOUND     u[3,1]  
 BV BOUND     u[3,2]  
 BV BOUND     y[1,1,1]
 BV BOUND     y[1,1,2]
 BV BOUND     y[1,2,1]
 BV BOUND     y[1,2,2]
 BV BOUND     y[1,3,1]
 BV BOUND     y[1,3,2]
 BV BOUND     y[1,4,1]
 BV BOUND     y[1,4,2]
 BV BOUND     y[2,1,1]
 BV BOUND     y[2,1,2]
 BV BOUND     y[2,2,1]
 BV BOUND     y[2,2,2]
 BV BOUND     y[2,3,1]
 BV BOUND     y[2,3,2]
 BV BOUND     y[2,4,1]
 BV BOUND     y[2,4,2]
 BV BOUND     y[3,1,1]
 BV BOUND     y[3,1,2]
 BV BOUND     y[3,2,1]
 BV BOUND     y[3,2,2]
 BV BOUND     y[3,3,1]
 BV BOUND     y[3,3,2]
 BV BOUND     y[3,4,1]
 BV BOUND     y[3,4,2]
 BV BOUND     z[1,1]  
 BV BOUND     z[1,2]  
 BV BOUND     z[2,1]  
 BV BOUND     z[2,2]  
 BV BOUND     z[3,1]  
 BV BOUND     z[3,2]  
 BV BOUND     z[4,1]  
 BV BOUND     z[4,2]  
ENDATA
